
Log started (V11.0.0) Mon May 26 15:04:18 2008

Tried aggregator 1 time.
Reduced MIP has 550 rows, 25001 columns, and 50050 nonzeros.
Presolve time =    0.20 sec.
Clique table members: 500.
MIP emphasis: balance optimality and feasibility.
MIP search method: dynamic search.
Parallel mode: none, using 1 thread.
Root relaxation solution time =    1.91 sec.

        Nodes                                         Cuts/
   Node  Left     Objective  IInf  Best Integer     Best Node    ItCnt     Gap

*     0+    0                        30501.0000      518.2600     1101   98.30%
*     0+    0                          588.0000      518.2600     1101   11.86%
      0     0      519.0000    91      588.0000     Fract: 10     1132   11.73%
*     0+    0                          579.0000      519.0000     1132   10.36%
      0     0      519.0000    95      579.0000     Covers: 2     1145   10.36%
*     0+    0                          573.0000      519.0000     1145    9.42%
      0     0      519.0000    96      573.0000     Covers: 2     1156    9.42%
*     0+    0                          568.0000      519.0000     1156    8.63%
*     0+    0                          566.0000      519.0000     1156    8.30%
*     0+    0                          565.0000      519.0000     1156    8.14%
*     0+    0                          561.0000      519.0000     1156    7.49%
*     0+    0                          560.0000      519.0000     1156    7.32%
      0     2      519.0000    96      560.0000      519.0000     1156    7.32%
*    20+   20                          558.0000      519.0000     1568    6.99%
*    20+   20                          557.0000      519.0000     1568    6.82%
*    30+   30                          556.0000      519.0000     1839    6.65%
*    30+   30                          555.0000      519.0000     1839    6.49%
*    40+   40                          554.0000      519.0000     2133    6.32%
*    40+   40                          553.0000      519.0000     2133    6.15%
*    70+   70                          552.0000      519.0000     3216    5.98%
*    70+   70                          551.0000      519.0000     3216    5.81%
*    80+   80                          550.0000      519.0000     3845    5.64%
*   100+  100                          549.0000      519.0000     5150    5.46%
    100   102      519.0000    93      549.0000      519.0000     5150    5.46%
*   110+  110                          548.0000      519.0000     6008    5.29%
*   120+  120                          547.0000      519.0000     6973    5.12%
*   130+  130                          546.0000      519.0000     7908    4.95%
*   130+  130                          545.0000      519.0000     7908    4.77%
*   140+  140                          544.0000      519.0000     8830    4.60%
*   140+  140                          542.0000      519.0000     8830    4.24%
*   160+  160                          541.0000      519.0000    10651    4.07%
*   170+  170                          540.0000      519.0000    11672    3.89%
*   190+  189                          538.0000      519.0000    13539    3.53%
    200   201      520.0000    84      538.0000      519.0000    13723    3.53%
*   210+  209                          537.0000      519.0000    14059    3.35%
*   230+  229                          536.0000      519.0000    15012    3.17%
    300   301      520.0000    81      536.0000      519.0000    23789    3.17%
*   310+  309                          535.0000      519.0000    24983    2.99%
*   360+  359                          534.0000      519.0000    30121    2.81%
*   370+  369                          533.0000      519.0000    31802    2.63%
*   380+  379                          532.0000      519.0000    34142    2.44%
*   400+  399                          531.0000      519.0000    41908    2.26%
    400   401      520.0000    93      531.0000      519.0000    41908    2.26%
*   500+  493                          530.0000      519.0000    88627    2.08%
    500   495      520.0000    90      530.0000      519.0000    88627    2.08%
*   510+  503                          529.0000      519.0000    93606    1.89%
    600   588      521.0000    91      529.0000      519.0000   139058    1.89%
    700   633      519.0000    94      529.0000      519.0000   153732    1.89%
    800   659      519.0000    95      529.0000      519.0000   164389    1.89%
    900   691      519.0000    92      529.0000      519.0000   183395    1.89%
   1000   718      521.0000    88      529.0000      519.0000   215230    1.89%
Elapsed time = 339.02 sec. (tree size = 10.01 MB, solutions = 37)
   1100   741      520.0000    92      529.0000      519.0000   233686    1.89%
   1200   762      521.0000    78      529.0000      519.0000   270711    1.89%
   1300   796      521.0000    86      529.0000      519.0000   337149    1.89%
   1400   826      522.0000    83      529.0000      519.0000   363361    1.89%
   1500   876      523.0000    81      529.0000      519.0000   405055    1.89%
   1600   976      523.0000    75      529.0000      519.0000   415456    1.89%
   1700  1076      523.0000    88      529.0000      519.0000   438832    1.89%
   1800  1173      524.0000    78      529.0000      519.0000   473204    1.89%
   1900  1270      525.0000    86      529.0000      519.0000   516544    1.89%
   2000  1370      525.0000    82      529.0000      519.0000   533802    1.89%
Elapsed time = 730.30 sec. (tree size = 21.30 MB, solutions = 37)
   2100  1465      526.0000    75      529.0000      519.0000   576507    1.89%
   2200  1561      527.0000    65      529.0000      519.0000   582209    1.89%
   2300  1652      528.0000    52      529.0000      519.0000   587007    1.89%
   2400  1735      519.0000    89      529.0000      519.0000   594827    1.89%
   2500  1835      519.0000    95      529.0000      519.0000   604130    1.89%
   2600  1935      519.0000    90      529.0000      519.0000   624209    1.89%
   2700  2026      520.0000    77      529.0000      519.0000   655368    1.89%
   2800  2126      520.0000    90      529.0000      519.0000   678992    1.89%
   2900  2223      521.0000    82      529.0000      519.0000   733258    1.89%
   3000  2323      521.0000    89      529.0000      519.0000   784246    1.89%
Elapsed time = 1033.70 sec. (tree size = 36.62 MB, solutions = 37)
   3100  2417      522.0000    80      529.0000      519.0000   840768    1.89%
   3200  2512      522.0144    92      529.0000      519.0000   904122    1.89%
   3300  2612      523.0000    87      529.0000      519.0000   917105    1.89%
   3400  2706      524.0000    82      529.0000      519.0000   925674    1.89%
   3500  2801      525.0000    79      529.0000      519.0000   941073    1.89%
   3600  2899      526.0000    78      529.0000      519.0000   952195    1.89%
   3700  2995      527.0000    71      529.0000      519.0000   966691    1.89%
   3800  3091      528.0000    48      529.0000      519.0000   970489    1.89%
   3900  3137      519.0038   107      529.0000      519.0000   982721    1.89%
   4000  3227      523.0000    75      529.0000      519.0000  1031366    1.89%
Elapsed time = 1323.78 sec. (tree size = 52.15 MB, solutions = 37)
   4100  3326      520.0000    86      529.0000      519.0000  1040889    1.89%
   4200  3426      520.0000    94      529.0000      519.0000  1043583    1.89%
   4300  3526      520.0000    84      529.0000      519.0000  1050534    1.89%
   4400  3626      527.0000    39      529.0000      519.0000  1133278    1.89%
   4500  3726      519.0000    90      529.0000      519.0000  1173508    1.89%
   4600  3822      520.0000    89      529.0000      519.0000  1256957    1.89%
   4700  3922      519.0000    93      529.0000      519.0000  1302379    1.89%
   4800  4022      527.0000    39      529.0000      519.0000  1346348    1.89%
   4900  4121      520.0000    95      529.0000      519.0000  1382077    1.89%
   5000  4221      524.0000    81      529.0000      519.0000  1425003    1.89%
Elapsed time = 1775.64 sec. (tree size = 74.94 MB, solutions = 37)
   5100  4320      521.0000    85      529.0000      519.0000  1469786    1.89%
   5200  4420      527.0000    77      529.0000      519.0000  1477375    1.89%
   5300  4519      520.0000    84      529.0000      519.0000  1506632    1.89%
   5400  4619      520.0000    79      529.0000      519.0000  1596648    1.89%
   5500  4718      520.0000    96      529.0000      519.0000  1646940    1.89%
   5600  4818      520.0000    85      529.0000      519.0000  1723742    1.89%
   5700  4917      528.0000    52      529.0000      519.0000  1773703    1.89%
   5800  5017      528.0000    73      529.0000      519.0000  1784248    1.89%
   5900  5116      528.0000    51      529.0000      519.0000  1795202    1.89%
   6000  5216      528.0000    75      529.0000      519.0000  1809095    1.89%
Elapsed time = 2237.70 sec. (tree size = 100.04 MB, solutions = 37)
   6100  5311      519.0000   106      529.0000      519.0000  1911183    1.89%
   6200  5394      520.0000    81      529.0000      519.0000  2021940    1.89%
   6300  5493      520.0000    81      529.0000      519.0000  2055907    1.89%
   6400  5592      521.0000    72      529.0000      519.0000  2166939    1.89%
   6500  5685      519.0000   101      529.0000      519.0000  2248577    1.89%
   6600  5782      520.0000    77      529.0000      519.0000  2278328    1.89%
   6700  5881      520.0000    86      529.0000      519.0000  2311911    1.89%
   6800  5981      520.0000    89      529.0000      519.0000  2393654    1.89%
   6900  6080      520.0000    91      529.0000      519.0000  2463208    1.89%
   7000  6180      520.0000    85      529.0000      519.0000  2552089    1.89%
Elapsed time = 3056.78 sec. (tree size = 125.97 MB, solutions = 37)
Began writing nodes to disk (directory ./cpxa04064 created)
   7100  6279      520.0000    88      529.0000      519.0000  2617386    1.89%
   7200  6379      528.0000    39      529.0000      519.0000  2657198    1.89%
   7300  6478      520.0000    88      529.0000      519.0000  2674488    1.89%
   7400  6578      524.0000    88      529.0000      519.0000  2698881    1.89%
   7500  6671      520.0000    96      529.0000      519.0000  2762036    1.89%
   7600  6771      520.0000    93      529.0000      519.0000  2826949    1.89%
   7700  6870      520.0000    82      529.0000      519.0000  2855913    1.89%
   7800  6970      520.0000    87      529.0000      519.0000  2920757    1.89%
   7900  7069      520.0000    87      529.0000      519.0000  2941753    1.89%
   8000  7169      520.0000    85      529.0000      519.0000  2980509    1.89%
Elapsed time = 3625.97 sec. (tree size = 154.16 MB, solutions = 37)
Nodefile size = 26.67 MB (19.17 MB after compression)
   8100  7268      520.0000    91      529.0000      519.0000  3007862    1.89%
   8200  7364      520.0000    86      529.0000      519.0000  3027212    1.89%
   8300  7463      520.0000    93      529.0000      519.0000  3058826    1.89%
   8400  7563      526.0000    42      529.0000      519.0000  3116358    1.89%
   8500  7661      520.0000    80      529.0000      519.0000  3146323    1.89%
*  8521+ 6746                          527.0000      519.0000  3155265    1.52%
   8600  6827      520.0000    90      527.0000      519.0000  3213654    1.52%
   8700  6926      520.0000    90      527.0000      519.0000  3258437    1.52%
   8800  7026      520.0000    86      527.0000      519.0000  3307899    1.52%
   8900  7125      524.0000    56      527.0000      519.0000  3329697    1.52%
   9000  7225      524.0000    76      527.0000      519.0000  3336721    1.52%
Elapsed time = 4152.11 sec. (tree size = 163.65 MB, solutions = 38)
Nodefile size = 35.86 MB (24.72 MB after compression)
   9100  7324      520.0000    91      527.0000      519.0000  3362195    1.52%
   9200  7424      520.0000    95      527.0000      519.0000  3424855    1.52%
   9300  7519      519.0000   128      527.0000      519.0000  3453008    1.52%
   9400  7606      519.0000   124      527.0000      519.0000  3490275    1.52%
   9500  7699      520.0000    85      527.0000      519.0000  3519525    1.52%
   9600  7799      520.0000    90      527.0000      519.0000  3574443    1.52%
   9700  7898      520.0000    89      527.0000      519.0000  3609908    1.52%
   9800  7998      520.0000    93      527.0000      519.0000  3642177    1.52%
   9900  8098      519.0000    99      527.0000      519.0000  3667221    1.52%
  10000  8197      520.0000    86      527.0000      519.0000  3688246    1.52%
Elapsed time = 4655.67 sec. (tree size = 193.93 MB, solutions = 38)
Nodefile size = 66.48 MB (47.59 MB after compression)
  10100  8296      520.0000    89      527.0000      519.0000  3716412    1.52%
  10200  8396      520.0000    78      527.0000      519.0000  3784778    1.52%
  10300  8495      520.0000    86      527.0000      519.0000  3817398    1.52%
  10400  8595      520.0000    87      527.0000      519.0000  3829291    1.52%
  10500  8689      519.0000    99      527.0000      519.0000  3860753    1.52%
  10600  8781      519.0000    95      527.0000      519.0000  3899107    1.52%
  10700  8879      520.0000    92      527.0000      519.0000  3920145    1.52%
  10800  8979      520.0000    83      527.0000      519.0000  3953054    1.52%
  10900  9078      520.0000    93      527.0000      519.0000  3982883    1.52%
  11000  9178      520.0000    88      527.0000      519.0000  4030361    1.52%
Elapsed time = 5180.30 sec. (tree size = 226.19 MB, solutions = 38)
Nodefile size = 99.08 MB (72.65 MB after compression)
  11100  9277      520.0000    89      527.0000      519.0000  4056532    1.52%
  11200  9377      520.0000    87      527.0000      519.0000  4080777    1.52%
  11300  9476      520.0000    97      527.0000      519.0000  4100484    1.52%
  11400  9576      523.0000    83      527.0000      519.0000  4116890    1.52%
  11500  9671      520.0000    86      527.0000      519.0000  4143759    1.52%
  11600  9771      520.0000    90      527.0000      519.0000  4189332    1.52%
  11700  9871      519.0000   103      527.0000      519.0000  4217322    1.52%
  11800  9969      519.0000    91      527.0000      519.0000  4260852    1.52%
  11900 10067      520.0000    84      527.0000      519.0000  4285347    1.52%
  12000 10167      520.0000    93      527.0000      519.0000  4325135    1.52%
Elapsed time = 5662.19 sec. (tree size = 260.40 MB, solutions = 38)
Nodefile size = 132.45 MB (98.58 MB after compression)
  12100 10266      520.0000    95      527.0000      519.0000  4347911    1.52%
  12200 10366      520.0000    96      527.0000      519.0000  4377330    1.52%
  12300 10466      524.0000    84      527.0000      519.0000  4399798    1.52%
  12400 10566      524.0000    90      527.0000      519.0000  4422479    1.52%
  12500 10666      519.0000    95      527.0000      519.0000  4453720    1.52%
  12600 10764      519.0000    96      527.0000      519.0000  4510431    1.52%
  12700 10862      523.0000    72      527.0000      519.0000  4524934    1.52%
  12800 10962      523.0000    85      527.0000      519.0000  4553683    1.52%
  12900 11061      520.0000    88      527.0000      519.0000  4573549    1.52%
  13000 11161      526.0000    54      527.0000      519.0000  4604701    1.52%
Elapsed time = 6129.34 sec. (tree size = 296.45 MB, solutions = 38)
Nodefile size = 168.99 MB (127.57 MB after compression)
  13100 11260      520.0000    85      527.0000      519.0000  4619218    1.52%
  13200 11360      526.0000    88      527.0000      519.0000  4631344    1.52%
  13300 11458      520.0000    90      527.0000      519.0000  4658614    1.52%
  13400 11558      520.0000    96      527.0000      519.0000  4736599    1.52%
  13500 11649      519.0085    94      527.0000      519.0000  4801470    1.52%
  13600 11742      520.0000    89      527.0000      519.0000  4855090    1.52%
  13700 11841      524.0000    62      527.0000      519.0000  4868637    1.52%
  13800 11941      525.0000    75      527.0000      519.0000  4875738    1.52%
  13900 12040      520.0000    89      527.0000      519.0000  4894264    1.52%
  14000 12140      521.0000    88      527.0000      519.0000  4937789    1.52%
Elapsed time = 6661.89 sec. (tree size = 333.92 MB, solutions = 38)
Nodefile size = 206.22 MB (158.10 MB after compression)
  14100 12234      519.0000    92      527.0000      519.0000  4996639    1.52%
  14200 12326      520.0000    90      527.0000      519.0000  5032391    1.52%
  14300 12425      520.0000    88      527.0000      519.0000  5054756    1.52%
  14400 12525      520.0000    94      527.0000      519.0000  5090695    1.52%
  14500 12621      520.0000    88      527.0000      519.0000  5123108    1.52%
  14600 12721      520.0000    92      527.0000      519.0000  5176039    1.52%
  14700 12820      520.0000    81      527.0000      519.0000  5201013    1.52%
  14800 12920      523.0000    75      527.0000      519.0000  5210284    1.52%
  14900 13017      520.0000    86      527.0000      519.0000  5236728    1.52%

Cover cuts applied:  2160
Mixed integer rounding cuts applied:  21
Zero-half cuts applied:  1
Gomory fractional cuts applied:  4

Solution pool: 38 solutions saved.

MIP - Time limit exceeded, integer feasible:  Objective = 5.2700000000e+002
Current MIP best bound = 5.1900000000e+002 (gap = 8, 1.52%)
Solution time = 7200.09 sec.  Iterations = 5245266  Nodes = 14922 (13038)


Incumbent solution
Variable Name           Solution Value
Cmax                        527.000000
X_1_42                        1.000000
X_2_48                        1.000000
X_3_46                        1.000000
X_4_27                        1.000000
X_5_17                        1.000000
X_6_3                         1.000000
X_7_25                        1.000000
X_8_50                        1.000000
X_9_12                        1.000000
X_10_38                       1.000000
X_11_6                        1.000000
X_12_26                       1.000000
X_13_21                       1.000000
X_14_46                       1.000000
X_15_21                       1.000000
X_16_41                       1.000000
X_17_33                       1.000000
X_18_4                        1.000000
X_19_33                       1.000000
X_20_50                       1.000000
X_21_45                       1.000000
X_22_19                       1.000000
X_23_7                        1.000000
X_24_40                       1.000000
X_25_5                        1.000000
X_26_46                       1.000000
X_27_28                       1.000000
X_28_8                        1.000000
X_29_4                        1.000000
X_30_40                       1.000000
X_31_37                       1.000000
X_32_29                       1.000000
X_33_7                        1.000000
X_34_9                        1.000000
X_35_5                        1.000000
X_36_48                       1.000000
X_37_33                       1.000000
X_38_5                        1.000000
X_39_11                       1.000000
X_40_21                       1.000000
X_41_11                       1.000000
X_42_18                       1.000000
X_43_8                        1.000000
X_44_28                       1.000000
X_45_20                       1.000000
X_46_19                       1.000000
X_47_9                        1.000000
X_48_31                       1.000000
X_49_3                        1.000000
X_50_10                       1.000000
X_51_8                        1.000000
X_52_25                       1.000000
X_53_26                       1.000000
X_54_28                       1.000000
X_55_40                       1.000000
X_56_21                       1.000000
X_57_29                       1.000000
X_58_7                        1.000000
X_59_38                       1.000000
X_60_1                        1.000000
X_61_15                       1.000000
X_62_30                       1.000000
X_63_26                       1.000000
X_64_38                       1.000000
X_65_31                       1.000000
X_66_1                        1.000000
X_67_31                       1.000000
X_68_38                       1.000000
X_69_46                       1.000000
X_70_5                        1.000000
X_71_21                       1.000000
X_72_36                       1.000000
X_73_30                       1.000000
X_74_41                       1.000000
X_75_3                        1.000000
X_76_21                       1.000000
X_77_35                       1.000000
X_78_48                       1.000000
X_79_33                       1.000000
X_80_31                       1.000000
X_81_30                       1.000000
X_82_11                       1.000000
X_83_16                       1.000000
X_84_17                       1.000000
X_85_32                       1.000000
X_86_6                        1.000000
X_87_23                       1.000000
X_88_33                       1.000000
X_89_48                       1.000000
X_90_48                       1.000000
X_91_46                       1.000000
X_92_26                       1.000000
X_93_10                       1.000000
X_94_47                       1.000000
X_95_1                        1.000000
X_96_36                       1.000000
X_97_19                       1.000000
X_98_27                       1.000000
X_99_35                       1.000000
X_100_6                       1.000000
X_101_7                       1.000000
X_102_31                      1.000000
X_103_46                      1.000000
X_104_43                      1.000000
X_105_4                       1.000000
X_106_4                       1.000000
X_107_13                      1.000000
X_108_44                      1.000000
X_109_15                      1.000000
X_110_32                      1.000000
X_111_4                       1.000000
X_112_49                      1.000000
X_113_18                      1.000000
X_114_43                      1.000000
X_115_6                       1.000000
X_116_32                      1.000000
X_117_3                       1.000000
X_118_37                      1.000000
X_119_11                      1.000000
X_120_44                      1.000000
X_121_18                      1.000000
X_122_18                      1.000000
X_123_28                      1.000000
X_124_27                      1.000000
X_125_37                      1.000000
X_126_4                       1.000000
X_127_22                      1.000000
X_128_37                      1.000000
X_129_45                      1.000000
X_130_35                      1.000000
X_131_48                      1.000000
X_132_21                      1.000000
X_133_22                      1.000000
X_134_47                      1.000000
X_135_38                      1.000000
X_136_26                      1.000000
X_137_49                      1.000000
X_138_11                      1.000000
X_139_13                      1.000000
X_140_44                      1.000000
X_141_12                      1.000000
X_142_40                      1.000000
X_143_35                      1.000000
X_144_47                      1.000000
X_145_35                      1.000000
X_146_42                      1.000000
X_147_44                      1.000000
X_148_36                      1.000000
X_149_1                       1.000000
X_150_9                       1.000000
X_151_34                      1.000000
X_152_2                       1.000000
X_153_17                      1.000000
X_154_13                      1.000000
X_155_32                      1.000000
X_156_21                      1.000000
X_157_36                      1.000000
X_158_45                      1.000000
X_159_33                      1.000000
X_160_20                      1.000000
X_161_28                      1.000000
X_162_20                      1.000000
X_163_24                      1.000000
X_164_35                      1.000000
X_165_35                      1.000000
X_166_44                      1.000000
X_167_30                      1.000000
X_168_13                      1.000000
X_169_13                      1.000000
X_170_8                       1.000000
X_171_16                      1.000000
X_172_29                      1.000000
X_173_22                      1.000000
X_174_5                       1.000000
X_175_19                      1.000000
X_176_21                      1.000000
X_177_41                      1.000000
X_178_15                      1.000000
X_179_1                       1.000000
X_180_41                      1.000000
X_181_2                       1.000000
X_182_4                       1.000000
X_183_2                       1.000000
X_184_41                      1.000000
X_185_3                       1.000000
X_186_2                       1.000000
X_187_11                      1.000000
X_188_6                       1.000000
X_189_36                      1.000000
X_190_24                      1.000000
X_191_17                      1.000000
X_192_10                      1.000000
X_193_8                       1.000000
X_194_5                       1.000000
X_195_16                      1.000000
X_196_4                       1.000000
X_197_17                      1.000000
X_198_5                       1.000000
X_199_43                      1.000000
X_200_12                      1.000000
X_201_34                      1.000000
X_202_37                      1.000000
X_203_6                       1.000000
X_204_39                      1.000000
X_205_20                      1.000000
X_206_23                      1.000000
X_207_15                      1.000000
X_208_25                      1.000000
X_209_45                      1.000000
X_210_6                       1.000000
X_211_39                      1.000000
X_212_26                      1.000000
X_213_30                      1.000000
X_214_2                       1.000000
X_215_27                      1.000000
X_216_22                      1.000000
X_217_8                       1.000000
X_218_7                       1.000000
X_219_49                      1.000000
X_220_14                      1.000000
X_221_24                      1.000000
X_222_38                      1.000000
X_223_45                      1.000000
X_224_43                      1.000000
X_225_16                      1.000000
X_226_4                       1.000000
X_227_40                      1.000000
X_228_29                      1.000000
X_229_17                      1.000000
X_230_10                      1.000000
X_231_15                      1.000000
X_232_50                      1.000000
X_233_20                      1.000000
X_234_10                      1.000000
X_235_3                       1.000000
X_236_10                      1.000000
X_237_15                      1.000000
X_238_39                      1.000000
X_239_8                       1.000000
X_240_39                      1.000000
X_241_10                      1.000000
X_242_31                      1.000000
X_243_22                      1.000000
X_244_40                      1.000000
X_245_9                       1.000000
X_246_27                      1.000000
X_247_23                      1.000000
X_248_3                       1.000000
X_249_4                       1.000000
X_250_44                      1.000000
X_251_7                       1.000000
X_252_47                      1.000000
X_253_32                      1.000000
X_254_46                      1.000000
X_255_9                       1.000000
X_256_13                      1.000000
X_257_14                      1.000000
X_258_41                      1.000000
X_259_26                      1.000000
X_260_50                      1.000000
X_261_43                      1.000000
X_262_15                      1.000000
X_263_30                      1.000000
X_264_32                      1.000000
X_265_38                      1.000000
X_266_43                      1.000000
X_267_11                      1.000000
X_268_8                       1.000000
X_269_31                      1.000000
X_270_5                       1.000000
X_271_34                      1.000000
X_272_42                      1.000000
X_273_12                      1.000000
X_274_45                      1.000000
X_275_14                      1.000000
X_276_47                      1.000000
X_277_6                       1.000000
X_278_45                      1.000000
X_279_33                      1.000000
X_280_15                      1.000000
X_281_24                      1.000000
X_282_36                      1.000000
X_283_37                      1.000000
X_284_44                      1.000000
X_285_11                      1.000000
X_286_27                      1.000000
X_287_9                       1.000000
X_288_12                      1.000000
X_289_13                      1.000000
X_290_11                      1.000000
X_291_48                      1.000000
X_292_31                      1.000000
X_293_5                       1.000000
X_294_16                      1.000000
X_295_30                      1.000000
X_296_39                      1.000000
X_297_12                      1.000000
X_298_42                      1.000000
X_299_32                      1.000000
X_300_44                      1.000000
X_301_39                      1.000000
X_302_1                       1.000000
X_303_16                      1.000000
X_304_50                      1.000000
X_305_33                      1.000000
X_306_46                      1.000000
X_307_47                      1.000000
X_308_34                      1.000000
X_309_16                      1.000000
X_310_18                      1.000000
X_311_37                      1.000000
X_312_32                      1.000000
X_313_19                      1.000000
X_314_50                      1.000000
X_315_29                      1.000000
X_316_25                      1.000000
X_317_14                      1.000000
X_318_22                      1.000000
X_319_32                      1.000000
X_320_24                      1.000000
X_321_9                       1.000000
X_322_4                       1.000000
X_323_34                      1.000000
X_324_25                      1.000000
X_325_10                      1.000000
X_326_13                      1.000000
X_327_20                      1.000000
X_328_9                       1.000000
X_329_1                       1.000000
X_330_10                      1.000000
X_331_20                      1.000000
X_332_2                       1.000000
X_333_3                       1.000000
X_334_30                      1.000000
X_335_34                      1.000000
X_336_49                      1.000000
X_337_21                      1.000000
X_338_22                      1.000000
X_339_25                      1.000000
X_340_19                      1.000000
X_341_23                      1.000000
X_342_50                      1.000000
X_343_15                      1.000000
X_344_9                       1.000000
X_345_28                      1.000000
X_346_6                       1.000000
X_347_37                      1.000000
X_348_14                      1.000000
X_349_23                      1.000000
X_350_37                      1.000000
X_351_44                      1.000000
X_352_43                      1.000000
X_353_42                      1.000000
X_354_47                      1.000000
X_355_46                      1.000000
X_356_12                      1.000000
X_357_28                      1.000000
X_358_27                      1.000000
X_359_29                      1.000000
X_360_7                       1.000000
X_361_34                      1.000000
X_362_36                      1.000000
X_363_16                      1.000000
X_364_11                      1.000000
X_365_38                      1.000000
X_366_7                       1.000000
X_367_14                      1.000000
X_368_3                       1.000000
X_369_9                       1.000000
X_370_38                      1.000000
X_371_25                      1.000000
X_372_49                      1.000000
X_373_1                       1.000000
X_374_23                      1.000000
X_375_47                      1.000000
X_376_37                      1.000000
X_377_43                      1.000000
X_378_20                      1.000000
X_379_20                      1.000000
X_380_1                       1.000000
X_381_33                      1.000000
X_382_28                      1.000000
X_383_49                      1.000000
X_384_18                      1.000000
X_385_49                      1.000000
X_386_40                      1.000000
X_387_36                      1.000000
X_388_3                       1.000000
X_389_29                      1.000000
X_390_41                      1.000000
X_391_34                      1.000000
X_392_26                      1.000000
X_393_20                      1.000000
X_394_38                      1.000000
X_395_50                      1.000000
X_396_44                      1.000000
X_397_37                      1.000000
X_398_44                      1.000000
X_399_18                      1.000000
X_400_2                       1.000000
X_401_12                      1.000000
X_402_42                      1.000000
X_403_4                       1.000000
X_404_16                      1.000000
X_405_22                      1.000000
X_406_24                      1.000000
X_407_40                      1.000000
X_408_35                      1.000000
X_409_17                      1.000000
X_410_18                      1.000000
X_411_41                      1.000000
X_412_42                      1.000000
X_413_34                      1.000000
X_414_32                      1.000000
X_415_28                      1.000000
X_416_42                      1.000000
X_417_8                       1.000000
X_418_44                      1.000000
X_419_17                      1.000000
X_420_35                      1.000000
X_421_14                      1.000000
X_422_42                      1.000000
X_423_19                      1.000000
X_424_36                      1.000000
X_425_9                       1.000000
X_426_49                      1.000000
X_427_29                      1.000000
X_428_28                      1.000000
X_429_13                      1.000000
X_430_18                      1.000000
X_431_25                      1.000000
X_432_36                      1.000000
X_433_47                      1.000000
X_434_30                      1.000000
X_435_28                      1.000000
X_436_21                      1.000000
X_437_2                       1.000000
X_438_40                      1.000000
X_439_12                      1.000000
X_440_26                      1.000000
X_441_7                       1.000000
X_442_43                      1.000000
X_443_1                       1.000000
X_444_1                       1.000000
X_445_33                      1.000000
X_446_28                      1.000000
X_447_49                      1.000000
X_448_16                      1.000000
X_449_23                      1.000000
X_450_2                       1.000000
X_451_9                       1.000000
X_452_50                      1.000000
X_453_19                      1.000000
X_454_31                      1.000000
X_455_49                      1.000000
X_456_44                      1.000000
X_457_14                      1.000000
X_458_38                      1.000000
X_459_27                      1.000000
X_460_39                      1.000000
X_461_3                       1.000000
X_462_48                      1.000000
X_463_1                       1.000000
X_464_14                      1.000000
X_465_30                      1.000000
X_466_44                      1.000000
X_467_37                      1.000000
X_468_45                      1.000000
X_469_36                      1.000000
X_470_16                      1.000000
X_471_12                      1.000000
X_472_10                      1.000000
X_473_17                      1.000000
X_474_34                      1.000000
X_475_29                      1.000000
X_476_23                      1.000000
X_477_6                       1.000000
X_478_46                      1.000000
X_479_24                      1.000000
X_480_36                      1.000000
X_481_2                       1.000000
X_482_17                      1.000000
X_483_6                       1.000000
X_484_15                      1.000000
X_485_39                      1.000000
X_486_8                       1.000000
X_487_28                      1.000000
X_488_37                      1.000000
X_489_24                      1.000000
X_490_39                      1.000000
X_491_32                      1.000000
X_492_24                      1.000000
X_493_29                      1.000000
X_494_1                       1.000000
X_495_31                      1.000000
X_496_44                      1.000000
X_497_29                      1.000000
X_498_19                      1.000000
X_499_33                      1.000000
X_500_43                      1.000000
All other variables in the range 1-25001 are 0.
